(set-logic BV) (define-fun origCir ((i_5 Bool) (i_6 Bool) (i_7 Bool) (i_4 Bool)) Bool (and (and (not (and (not i_6) i_4)) i_5) (not (and (and (not i_7) i_6) (not i_4))))) (synth-fun skel ((i_5 Bool) (i_6 Bool) (i_7 Bool) (i_4 Bool)) Bool) (declare-var i_5 Bool) (declare-var i_6 Bool) (declare-var i_7 Bool) (declare-var i_4 Bool) (constraint (= (origCir i_5 i_6 i_7 i_4) (skel i_5 i_6 i_7 i_4))) (check-synth)
